c ind 1 17 18 19 20 21 22 23 24 25 26 27 28 29 30 31 32 0
p cnf 69 130
-4 -6 0
5 -6 0
4 -5 6 0
-4 -7 0
-5 -7 0
4 5 7 0
-4 -9 0
-5 -9 0
8 -9 0
4 5 -8 9 0
-4 -10 0
-5 -10 0
-8 -10 0
4 5 8 10 0
-4 -12 0
-5 -12 0
-8 -12 0
11 -12 0
4 5 8 -11 12 0
-4 -13 0
-5 -13 0
-8 -13 0
-11 -13 0
4 5 8 11 13 0
-4 -15 0
-5 -15 0
-8 -15 0
-11 -15 0
14 -15 0
4 5 8 11 -14 15 0
16 0
17 -33 0
-17 33 0
-1 -33 -34 0
1 33 -34 0
-1 33 34 0
1 -33 34 0
-34 0
22 -35 0
-22 35 0
1 -37 0
35 -37 0
-1 -35 37 0
-2 -37 -38 0
2 37 -38 0
-2 37 38 0
2 -37 38 0
-38 0
27 -39 0
-27 39 0
2 -41 0
39 -41 0
-2 -39 41 0
-3 -41 -42 0
3 41 -42 0
-3 41 42 0
3 -41 42 0
-42 0
32 -43 0
-32 43 0
3 -45 0
43 -45 0
-3 -43 45 0
-4 -45 -46 0
4 45 -46 0
-4 45 46 0
4 -45 46 0
-46 0
-27 47 0
27 -47 0
-27 -48 0
27 -48 0
27 49 0
-48 49 0
-27 48 -49 0
-5 -49 -50 0
5 49 -50 0
-5 49 50 0
5 -49 50 0
-50 0
-32 51 0
32 -51 0
-32 -52 0
32 -52 0
32 53 0
-52 53 0
-32 52 -53 0
-8 -53 -54 0
8 53 -54 0
-8 53 54 0
8 -53 54 0
-54 0
-17 55 0
17 -55 0
-17 -56 0
17 -56 0
17 57 0
-56 57 0
-17 56 -57 0
-11 -57 -58 0
11 57 -58 0
-11 57 58 0
11 -57 58 0
-58 0
-22 59 0
22 -59 0
-22 -60 0
22 -60 0
22 61 0
-60 61 0
-22 60 -61 0
-14 -61 -62 0
14 61 -62 0
-14 61 62 0
14 -61 62 0
-62 0
6 9 12 15 0
-63 -65 -67 0
63 65 -67 0
-63 65 67 0
63 -65 67 0
-64 -66 -68 0
64 66 -68 0
-64 66 68 0
64 -66 68 0
-67 -69 0
-68 -69 0
67 68 69 0
-16 69 0
16 -69 0
c __CPROVER_malloc_is_new_array#1 FALSE
c check::$tmp::tmp_if_expr$1!0@1#1 36
c goto_symex::\guard#1 1
c check::$tmp::tmp_if_expr$1!0@1#2 35
c check::$tmp::tmp_if_expr$1!0@1#3 36
c check::$tmp::tmp_if_expr$1!0@1#4 FALSE
c check::$tmp::tmp_if_expr$1!0@1#5 2
c check::$tmp::tmp_if_expr$2!0@1#1 40
c check::$tmp::tmp_if_expr$2!0@1#2 39
c check::$tmp::tmp_if_expr$2!0@1#3 40
c check::$tmp::tmp_if_expr$2!0@1#4 FALSE
c check::$tmp::tmp_if_expr$2!0@1#5 3
c check::$tmp::tmp_if_expr$3!0@1#1 44
c check::$tmp::tmp_if_expr$3!0@1#2 43
c check::$tmp::tmp_if_expr$3!0@1#3 44
c check::$tmp::tmp_if_expr$3!0@1#4 FALSE
c check::$tmp::tmp_if_expr$3!0@1#5 4
c goto_symex::\guard#2 5
c goto_symex::\guard#3 8
c goto_symex::\guard#4 11
c goto_symex::\guard#5 14
c __CPROVER_thread_id!0#1 FALSE FALSE FALSE FALSE FALSE FALSE FALSE FALSE FALSE FALSE FALSE FALSE FALSE FALSE FALSE FALSE FALSE FALSE FALSE FALSE FALSE FALSE FALSE FALSE FALSE FALSE FALSE FALSE FALSE FALSE FALSE FALSE FALSE FALSE FALSE FALSE FALSE FALSE FALSE FALSE FALSE FALSE FALSE FALSE FALSE FALSE FALSE FALSE FALSE FALSE FALSE FALSE FALSE FALSE FALSE FALSE FALSE FALSE FALSE FALSE FALSE FALSE FALSE FALSE
c __CPROVER_rounding_mode!0#1 FALSE FALSE FALSE FALSE FALSE FALSE FALSE FALSE FALSE FALSE FALSE FALSE FALSE FALSE FALSE FALSE FALSE FALSE FALSE FALSE FALSE FALSE FALSE FALSE FALSE FALSE FALSE FALSE FALSE FALSE FALSE FALSE
c __CPROVER_pipe_count#1 FALSE FALSE FALSE FALSE FALSE FALSE FALSE FALSE FALSE FALSE FALSE FALSE FALSE FALSE FALSE FALSE FALSE FALSE FALSE FALSE FALSE FALSE FALSE FALSE FALSE FALSE FALSE FALSE FALSE FALSE FALSE FALSE
c __CPROVER_deallocated#1 FALSE FALSE FALSE FALSE FALSE FALSE FALSE FALSE FALSE FALSE FALSE FALSE FALSE FALSE FALSE FALSE FALSE FALSE FALSE FALSE FALSE FALSE FALSE FALSE FALSE FALSE FALSE FALSE FALSE FALSE FALSE FALSE FALSE FALSE FALSE FALSE FALSE FALSE FALSE FALSE FALSE FALSE FALSE FALSE FALSE FALSE FALSE FALSE FALSE FALSE FALSE FALSE FALSE FALSE FALSE FALSE FALSE FALSE FALSE FALSE FALSE FALSE FALSE FALSE
c __CPROVER_dead_object#1 FALSE FALSE FALSE FALSE FALSE FALSE FALSE FALSE FALSE FALSE FALSE FALSE FALSE FALSE FALSE FALSE FALSE FALSE FALSE FALSE FALSE FALSE FALSE FALSE FALSE FALSE FALSE FALSE FALSE FALSE FALSE FALSE FALSE FALSE FALSE FALSE FALSE FALSE FALSE FALSE FALSE FALSE FALSE FALSE FALSE FALSE FALSE FALSE FALSE FALSE FALSE FALSE FALSE FALSE FALSE FALSE FALSE FALSE FALSE FALSE FALSE FALSE FALSE FALSE
c __CPROVER_next_thread_id#1 FALSE FALSE FALSE FALSE FALSE FALSE FALSE FALSE FALSE FALSE FALSE FALSE FALSE FALSE FALSE FALSE FALSE FALSE FALSE FALSE FALSE FALSE FALSE FALSE FALSE FALSE FALSE FALSE FALSE FALSE FALSE FALSE FALSE FALSE FALSE FALSE FALSE FALSE FALSE FALSE FALSE FALSE FALSE FALSE FALSE FALSE FALSE FALSE FALSE FALSE FALSE FALSE FALSE FALSE FALSE FALSE FALSE FALSE FALSE FALSE FALSE FALSE FALSE FALSE
c __CPROVER_malloc_object#1 FALSE FALSE FALSE FALSE FALSE FALSE FALSE FALSE FALSE FALSE FALSE FALSE FALSE FALSE FALSE FALSE FALSE FALSE FALSE FALSE FALSE FALSE FALSE FALSE FALSE FALSE FALSE FALSE FALSE FALSE FALSE FALSE FALSE FALSE FALSE FALSE FALSE FALSE FALSE FALSE FALSE FALSE FALSE FALSE FALSE FALSE FALSE FALSE FALSE FALSE FALSE FALSE FALSE FALSE FALSE FALSE FALSE FALSE FALSE FALSE FALSE FALSE FALSE FALSE
c __CPROVER_malloc_size#1 FALSE FALSE FALSE FALSE FALSE FALSE FALSE FALSE FALSE FALSE FALSE FALSE FALSE FALSE FALSE FALSE FALSE FALSE FALSE FALSE FALSE FALSE FALSE FALSE FALSE FALSE FALSE FALSE FALSE FALSE FALSE FALSE FALSE FALSE FALSE FALSE FALSE FALSE FALSE FALSE FALSE FALSE FALSE FALSE FALSE FALSE FALSE FALSE FALSE FALSE FALSE FALSE FALSE FALSE FALSE FALSE FALSE FALSE FALSE FALSE FALSE FALSE FALSE FALSE
c check::1::x!0@1#1 17 18 19 20 21 22 23 24 25 26 27 28 29 30 31 32
c __CPROVER_memory_leak#1 FALSE FALSE FALSE FALSE FALSE FALSE FALSE FALSE FALSE FALSE FALSE FALSE FALSE FALSE FALSE FALSE FALSE FALSE FALSE FALSE FALSE FALSE FALSE FALSE FALSE FALSE FALSE FALSE FALSE FALSE FALSE FALSE FALSE FALSE FALSE FALSE FALSE FALSE FALSE FALSE FALSE FALSE FALSE FALSE FALSE FALSE FALSE FALSE FALSE FALSE FALSE FALSE FALSE FALSE FALSE FALSE FALSE FALSE FALSE FALSE FALSE FALSE FALSE FALSE
